core/snapshot/target/ssa/_carrier_symmetric_init.smt2
; Command:
; > z3 -in -smt2

(set-logic QF_UFBV)
(declare-fun theory0_len ((_ BitVec 64)) (_ BitVec 64)); theory len
(declare-fun theory1_safe ((_ BitVec 64)) Bool); theory safe
(declare-fun theory2_nullterm ((_ BitVec 64)) Bool); theory nullterm
(declare-fun theory3_symbol ((_ BitVec 64)) Bool); theory symbol
; : /home/runner/work/carrier/carrier/core/src/symmetric.zz:7
; : /home/runner/work/carrier/carrier/core/src/symmetric.zz:8
; : /home/runner/work/carrier/carrier/core/src/symmetric.zz:7
; : /home/runner/work/carrier/carrier/core/src/symmetric.zz:10
; : /home/runner/work/carrier/carrier/core/src/sha256.zz:7
; : /home/runner/work/carrier/carrier/core/src/sha256.zz:7
; literal expr
(declare-fun var10_literal_Unsigned_32___t0 () (_ BitVec 64))
(assert
  (= var10_literal_Unsigned_32___t0 (_ bv32 64))

)

; : /home/runner/work/carrier/carrier/core/src/sha256.zz:7
(declare-fun var11_safe_literal_Unsigned_32______safe___carrier__sha256__HASHLEN___t0 () Bool)
(assert
  (= var11_safe_literal_Unsigned_32______safe___carrier__sha256__HASHLEN___t0 (theory1_safe var10_literal_Unsigned_32___t0) )
)

(declare-fun var9___carrier__sha256__HASHLEN__t1 () (_ BitVec 64))
(assert
  (= var11_safe_literal_Unsigned_32______safe___carrier__sha256__HASHLEN___t0 (theory1_safe var9___carrier__sha256__HASHLEN__t1) )
)

(declare-fun var12_nullterm_literal_Unsigned_32______nullterm___carrier__sha256__HASHLEN___t0 () Bool)
(assert
  (= var12_nullterm_literal_Unsigned_32______nullterm___carrier__sha256__HASHLEN___t0 (theory2_nullterm var10_literal_Unsigned_32___t0) )
)

(assert
  (= var12_nullterm_literal_Unsigned_32______nullterm___carrier__sha256__HASHLEN___t0 (theory2_nullterm var9___carrier__sha256__HASHLEN__t1) )
)

; : /home/runner/work/carrier/carrier/core/src/sha256.zz:7
(declare-fun var13_implicit_coercion_of_literal_Unsigned_32___t0 () (_ BitVec 64))
(assert (! (= var13_implicit_coercion_of_literal_Unsigned_32___t0 var10_literal_Unsigned_32___t0) :named A0))(declare-fun var9___carrier__sha256__HASHLEN__t0 () (_ BitVec 64))
(assert
  (= var9___carrier__sha256__HASHLEN__t1  (ite true var13_implicit_coercion_of_literal_Unsigned_32___t0 var9___carrier__sha256__HASHLEN__t0)  )
)

; : /home/runner/work/carrier/carrier/core/src/symmetric.zz:12
; : /home/runner/work/carrier/carrier/core/src/symmetric.zz:21
(declare-fun var15___carrier__symmetric__init__t0 () (_ BitVec 64))
(declare-fun var16_true__t0 () Bool)
(assert
  (= var16_true__t0 (theory1_safe var15___carrier__symmetric__init__t0) )
)

(assert
  var16_true__t0
)

; : /home/runner/work/carrier/carrier/core/src/cipher.zz:12
; : /home/runner/work/carrier/carrier/modules/err/src/lib.zz:18
; : /home/runner/work/carrier/carrier/modules/err/src/lib.zz:11
(declare-fun theory19___err__checked ((_ BitVec 64)) Bool); theory ::err::checked
; : /home/runner/work/carrier/carrier/core/src/cipher.zz:112
(declare-fun var20___carrier__cipher__encrypt__t0 () (_ BitVec 64))
(declare-fun var21_true__t0 () Bool)
(assert
  (= var21_true__t0 (theory1_safe var20___carrier__cipher__encrypt__t0) )
)

(assert
  var21_true__t0
)

; : /home/runner/work/carrier/carrier/modules/buffer/src/lib.zz:11
; : /home/runner/work/carrier/carrier/modules/buffer/src/lib.zz:16
(declare-fun theory23___buffer__integrity ((_ BitVec 64) (_ BitVec 64)) Bool); theory ::buffer::integrity
; : /home/runner/work/carrier/carrier/modules/buffer/src/lib.zz:25
(declare-fun var24___buffer__make__t0 () (_ BitVec 64))
(declare-fun var25_true__t0 () Bool)
(assert
  (= var25_true__t0 (theory1_safe var24___buffer__make__t0) )
)

(assert
  var25_true__t0
)

; : /home/runner/work/carrier/carrier/modules/slice/src/slice.zz:3
; : /home/runner/work/carrier/carrier/modules/slice/src/slice.zz:8
(declare-fun theory27___slice__slice__integrity ((_ BitVec 64)) Bool); theory ::slice::slice::integrity
; : /home/runner/work/carrier/carrier/modules/buffer/src/lib.zz:59
(declare-fun var28___buffer__as_slice__t0 () (_ BitVec 64))
(declare-fun var29_true__t0 () Bool)
(assert
  (= var29_true__t0 (theory1_safe var28___buffer__as_slice__t0) )
)

(assert
  var29_true__t0
)

; : /home/runner/work/carrier/carrier/modules/slice/src/mut_slice.zz:5
; : /home/runner/work/carrier/carrier/modules/slice/src/mut_slice.zz:11
(declare-fun theory31___slice__mut_slice__integrity ((_ BitVec 64)) Bool); theory ::slice::mut_slice::integrity
; : /home/runner/work/carrier/carrier/modules/slice/src/mut_slice.zz:153
(declare-fun var32___slice__mut_slice__push64__t0 () (_ BitVec 64))
(declare-fun var33_true__t0 () Bool)
(assert
  (= var33_true__t0 (theory1_safe var32___slice__mut_slice__push64__t0) )
)

(assert
  var33_true__t0
)

; : /home/runner/work/carrier/carrier/modules/slice/src/mut_slice.zz:168
(declare-fun var34___slice__mut_slice__append_obj__t0 () (_ BitVec 64))
(declare-fun var35_true__t0 () Bool)
(assert
  (= var35_true__t0 (theory1_safe var34___slice__mut_slice__append_obj__t0) )
)

(assert
  var35_true__t0
)

; : /home/runner/work/carrier/carrier/core/src/cipher.zz:25
(declare-fun var36___carrier__cipher__encrypt_ad__t0 () (_ BitVec 64))
(declare-fun var37_true__t0 () Bool)
(assert
  (= var37_true__t0 (theory1_safe var36___carrier__cipher__encrypt_ad__t0) )
)

(assert
  var37_true__t0
)

; : /home/runner/work/carrier/carrier/modules/buffer/src/lib.zz:101
(declare-fun var38___buffer__pop__t0 () (_ BitVec 64))
(declare-fun var39_true__t0 () Bool)
(assert
  (= var39_true__t0 (theory1_safe var38___buffer__pop__t0) )
)

(assert
  var39_true__t0
)

; : /home/runner/work/carrier/carrier/modules/slice/src/mut_slice.zz:138
(declare-fun var40___slice__mut_slice__push32__t0 () (_ BitVec 64))
(declare-fun var41_true__t0 () Bool)
(assert
  (= var41_true__t0 (theory1_safe var40___slice__mut_slice__push32__t0) )
)

(assert
  var41_true__t0
)

; : /home/runner/work/carrier/carrier/core/src/cipher.zz:131
(declare-fun var42___carrier__cipher__decrypt__t0 () (_ BitVec 64))
(declare-fun var43_true__t0 () Bool)
(assert
  (= var43_true__t0 (theory1_safe var42___carrier__cipher__decrypt__t0) )
)

(assert
  var43_true__t0
)

; : /home/runner/work/carrier/carrier/modules/slice/src/slice.zz:14
(declare-fun var44___slice__slice__eq__t0 () (_ BitVec 64))
(declare-fun var45_true__t0 () Bool)
(assert
  (= var45_true__t0 (theory1_safe var44___slice__slice__eq__t0) )
)

(assert
  var45_true__t0
)

; : /home/runner/work/carrier/carrier/modules/buffer/src/lib.zz:161
(declare-fun var46___buffer__append_slice__t0 () (_ BitVec 64))
(declare-fun var47_true__t0 () Bool)
(assert
  (= var47_true__t0 (theory1_safe var46___buffer__append_slice__t0) )
)

(assert
  var47_true__t0
)

; : /home/runner/work/carrier/carrier/modules/buffer/src/lib.zz:134
(declare-fun var48___buffer__available__t0 () (_ BitVec 64))
(declare-fun var49_true__t0 () Bool)
(assert
  (= var49_true__t0 (theory1_safe var48___buffer__available__t0) )
)

(assert
  var49_true__t0
)

; : /home/runner/work/carrier/carrier/modules/buffer/src/lib.zz:236
(declare-fun var50___buffer__eq_cstr__t0 () (_ BitVec 64))
(declare-fun var51_true__t0 () Bool)
(assert
  (= var51_true__t0 (theory1_safe var50___buffer__eq_cstr__t0) )
)

(assert
  var51_true__t0
)

; : /home/runner/work/carrier/carrier/modules/buffer/src/lib.zz:286
(declare-fun var52___buffer__ends_with_cstr__t0 () (_ BitVec 64))
(declare-fun var53_true__t0 () Bool)
(assert
  (= var53_true__t0 (theory1_safe var52___buffer__ends_with_cstr__t0) )
)

(assert
  var53_true__t0
)

; : /home/runner/work/carrier/carrier/modules/buffer/src/lib.zz:418
(declare-fun var54___buffer__copy_cstr__t0 () (_ BitVec 64))
(declare-fun var55_true__t0 () Bool)
(assert
  (= var55_true__t0 (theory1_safe var54___buffer__copy_cstr__t0) )
)

(assert
  var55_true__t0
)

; : /home/runner/work/carrier/carrier/core/src/sha256.zz:67
(declare-fun var56___carrier__sha256__hkdf__t0 () (_ BitVec 64))
(declare-fun var57_true__t0 () Bool)
(assert
  (= var57_true__t0 (theory1_safe var56___carrier__sha256__hkdf__t0) )
)

(assert
  var57_true__t0
)

; : /home/runner/work/carrier/carrier/core/src/cipher.zz:67
(declare-fun var58___carrier__cipher__decrypt_ad__t0 () (_ BitVec 64))
(declare-fun var59_true__t0 () Bool)
(assert
  (= var59_true__t0 (theory1_safe var58___carrier__cipher__decrypt_ad__t0) )
)

(assert
  var59_true__t0
)

; : /home/runner/work/carrier/carrier/modules/err/src/lib.zz:48
(declare-fun var60___err__check__t0 () (_ BitVec 64))
(declare-fun var61_true__t0 () Bool)
(assert
  (= var61_true__t0 (theory1_safe var60___err__check__t0) )
)

(assert
  var61_true__t0
)

; : /home/runner/work/carrier/carrier/core/src/symmetric.zz:28
(declare-fun var62___carrier__symmetric__mix_hash__t0 () (_ BitVec 64))
(declare-fun var63_true__t0 () Bool)
(assert
  (= var63_true__t0 (theory1_safe var62___carrier__symmetric__mix_hash__t0) )
)

(assert
  var63_true__t0
)

; : /home/runner/work/carrier/carrier/core/src/symmetric.zz:80
(declare-fun var64___carrier__symmetric__decrypt_and_mix_hash__t0 () (_ BitVec 64))
(declare-fun var65_true__t0 () Bool)
(assert
  (= var65_true__t0 (theory1_safe var64___carrier__symmetric__decrypt_and_mix_hash__t0) )
)

(assert
  var65_true__t0
)

; : /home/runner/work/carrier/carrier/modules/err/src/lib.zz:133
(declare-fun var66___err__fail__t0 () (_ BitVec 64))
(declare-fun var67_true__t0 () Bool)
(assert
  (= var67_true__t0 (theory1_safe var66___err__fail__t0) )
)

(assert
  var67_true__t0
)

; : /home/runner/work/carrier/carrier/core/src/cipher.zz:12
; : /home/runner/work/carrier/carrier/modules/err/src/lib.zz:199
(declare-fun var68___err__to_str__t0 () (_ BitVec 64))
(declare-fun var69_true__t0 () Bool)
(assert
  (= var69_true__t0 (theory1_safe var68___err__to_str__t0) )
)

(assert
  var69_true__t0
)

; : /home/runner/work/carrier/carrier/modules/err/src/lib.zz:70
(declare-fun var70___err__fail_with_errno__t0 () (_ BitVec 64))
(declare-fun var71_true__t0 () Bool)
(assert
  (= var71_true__t0 (theory1_safe var70___err__fail_with_errno__t0) )
)

(assert
  var71_true__t0
)

; : /home/runner/work/carrier/carrier/modules/slice/src/slice.zz:95
(declare-fun var72___slice__slice__sub__t0 () (_ BitVec 64))
(declare-fun var73_true__t0 () Bool)
(assert
  (= var73_true__t0 (theory1_safe var72___slice__slice__sub__t0) )
)

(assert
  var73_true__t0
)

; : /home/runner/work/carrier/carrier/modules/slice/src/mut_slice.zz:49
(declare-fun var74___slice__mut_slice__space__t0 () (_ BitVec 64))
(declare-fun var75_true__t0 () Bool)
(assert
  (= var75_true__t0 (theory1_safe var74___slice__mut_slice__space__t0) )
)

(assert
  var75_true__t0
)

; : /home/runner/work/carrier/carrier/modules/err/src/lib.zz:168
(declare-fun var76___err__abort__t0 () (_ BitVec 64))
(declare-fun var77_true__t0 () Bool)
(assert
  (= var77_true__t0 (theory1_safe var76___err__abort__t0) )
)

(assert
  var77_true__t0
)

; : /home/runner/work/carrier/carrier/modules/slice/src/slice.zz:24
(declare-fun var78___slice__slice__eq_cstr__t0 () (_ BitVec 64))
(declare-fun var79_true__t0 () Bool)
(assert
  (= var79_true__t0 (theory1_safe var78___slice__slice__eq_cstr__t0) )
)

(assert
  var79_true__t0
)

; : /home/runner/work/carrier/carrier/modules/slice/src/slice.zz:43
(declare-fun var80___slice__slice__empty__t0 () (_ BitVec 64))
(declare-fun var81_true__t0 () Bool)
(assert
  (= var81_true__t0 (theory1_safe var80___slice__slice__empty__t0) )
)

(assert
  var81_true__t0
)

; : /home/runner/work/carrier/carrier/modules/buffer/src/lib.zz:304
(declare-fun var82___buffer__fgets__t0 () (_ BitVec 64))
(declare-fun var83_true__t0 () Bool)
(assert
  (= var83_true__t0 (theory1_safe var82___buffer__fgets__t0) )
)

(assert
  var83_true__t0
)

; : /home/runner/work/carrier/carrier/core/src/cipher.zz:17
(declare-fun var84___carrier__cipher__init__t0 () (_ BitVec 64))
(declare-fun var85_true__t0 () Bool)
(assert
  (= var85_true__t0 (theory1_safe var84___carrier__cipher__init__t0) )
)

(assert
  var85_true__t0
)

; : /home/runner/work/carrier/carrier/core/src/symmetric.zz:111
(declare-fun var86___carrier__symmetric__split__t0 () (_ BitVec 64))
(declare-fun var87_true__t0 () Bool)
(assert
  (= var87_true__t0 (theory1_safe var86___carrier__symmetric__split__t0) )
)

(assert
  var87_true__t0
)

; : /home/runner/work/carrier/carrier/modules/buffer/src/lib.zz:143
(declare-fun var88___buffer__append_cstr__t0 () (_ BitVec 64))
(declare-fun var89_true__t0 () Bool)
(assert
  (= var89_true__t0 (theory1_safe var88___buffer__append_cstr__t0) )
)

(assert
  var89_true__t0
)

; : /home/runner/work/carrier/carrier/modules/err/src/lib.zz:36
(declare-fun var90___err__ignore__t0 () (_ BitVec 64))
(declare-fun var91_true__t0 () Bool)
(assert
  (= var91_true__t0 (theory1_safe var90___err__ignore__t0) )
)

(assert
  var91_true__t0
)

; : /home/runner/work/carrier/carrier/core/src/symmetric.zz:38
(declare-fun var92___carrier__symmetric__mix_key__t0 () (_ BitVec 64))
(declare-fun var93_true__t0 () Bool)
(assert
  (= var93_true__t0 (theory1_safe var92___carrier__symmetric__mix_key__t0) )
)

(assert
  var93_true__t0
)

; : /home/runner/work/carrier/carrier/modules/slice/src/mut_slice.zz:5
; : /home/runner/work/carrier/carrier/modules/slice/src/slice.zz:135
(declare-fun var94___slice__slice__atoi__t0 () (_ BitVec 64))
(declare-fun var95_true__t0 () Bool)
(assert
  (= var95_true__t0 (theory1_safe var94___slice__slice__atoi__t0) )
)

(assert
  var95_true__t0
)

; : /home/runner/work/carrier/carrier/modules/buffer/src/lib.zz:398
(declare-fun var96___buffer__copy_bytes__t0 () (_ BitVec 64))
(declare-fun var97_true__t0 () Bool)
(assert
  (= var97_true__t0 (theory1_safe var96___buffer__copy_bytes__t0) )
)

(assert
  var97_true__t0
)

; : /home/runner/work/carrier/carrier/modules/slice/src/mut_slice.zz:75
(declare-fun var98___slice__mut_slice__append_bytes__t0 () (_ BitVec 64))
(declare-fun var99_true__t0 () Bool)
(assert
  (= var99_true__t0 (theory1_safe var98___slice__mut_slice__append_bytes__t0) )
)

(assert
  var99_true__t0
)

; : /home/runner/work/carrier/carrier/modules/buffer/src/lib.zz:408
(declare-fun var100___buffer__copy_slice__t0 () (_ BitVec 64))
(declare-fun var101_true__t0 () Bool)
(assert
  (= var101_true__t0 (theory1_safe var100___buffer__copy_slice__t0) )
)

(assert
  var101_true__t0
)

; : /home/runner/work/carrier/carrier/core/src/sha256.zz:18
; : /home/runner/work/carrier/carrier/core/src/sha256.zz:60
(declare-fun var103___carrier__sha256__finish__t0 () (_ BitVec 64))
(declare-fun var104_true__t0 () Bool)
(assert
  (= var104_true__t0 (theory1_safe var103___carrier__sha256__finish__t0) )
)

(assert
  var104_true__t0
)

; : /home/runner/work/carrier/carrier/core/src/sha256.zz:30
(declare-fun var105___carrier__sha256__update__t0 () (_ BitVec 64))
(declare-fun var106_true__t0 () Bool)
(assert
  (= var106_true__t0 (theory1_safe var105___carrier__sha256__update__t0) )
)

(assert
  var106_true__t0
)

; : /home/runner/work/carrier/carrier/modules/err/src/lib.zz:187
(declare-fun var107___err__elog__t0 () (_ BitVec 64))
(declare-fun var108_true__t0 () Bool)
(assert
  (= var108_true__t0 (theory1_safe var107___err__elog__t0) )
)

(assert
  var108_true__t0
)

; : /home/runner/work/carrier/carrier/modules/slice/src/slice.zz:51
(declare-fun var109___slice__slice__make__t0 () (_ BitVec 64))
(declare-fun var110_true__t0 () Bool)
(assert
  (= var110_true__t0 (theory1_safe var109___slice__slice__make__t0) )
)

(assert
  var110_true__t0
)

; : /home/runner/work/carrier/carrier/modules/buffer/src/lib.zz:75
(declare-fun var111___buffer__as_mut_slice__t0 () (_ BitVec 64))
(declare-fun var112_true__t0 () Bool)
(assert
  (= var112_true__t0 (theory1_safe var111___buffer__as_mut_slice__t0) )
)

(assert
  var112_true__t0
)

; : /home/runner/work/carrier/carrier/modules/buffer/src/lib.zz:367
(declare-fun var113___buffer__split__t0 () (_ BitVec 64))
(declare-fun var114_true__t0 () Bool)
(assert
  (= var114_true__t0 (theory1_safe var113___buffer__split__t0) )
)

(assert
  var114_true__t0
)

; : /home/runner/work/carrier/carrier/modules/buffer/src/lib.zz:320
(declare-fun var115___buffer__substr__t0 () (_ BitVec 64))
(declare-fun var116_true__t0 () Bool)
(assert
  (= var116_true__t0 (theory1_safe var115___buffer__substr__t0) )
)

(assert
  var116_true__t0
)

; : /home/runner/work/carrier/carrier/modules/buffer/src/lib.zz:50
(declare-fun var117___buffer__cstr__t0 () (_ BitVec 64))
(declare-fun var118_true__t0 () Bool)
(assert
  (= var118_true__t0 (theory1_safe var117___buffer__cstr__t0) )
)

(assert
  var118_true__t0
)

; : /home/runner/work/carrier/carrier/modules/buffer/src/lib.zz:84
(declare-fun var119___buffer__push__t0 () (_ BitVec 64))
(declare-fun var120_true__t0 () Bool)
(assert
  (= var120_true__t0 (theory1_safe var119___buffer__push__t0) )
)

(assert
  var120_true__t0
)

; : /home/runner/work/carrier/carrier/modules/slice/src/mut_slice.zz:36
(declare-fun var121___slice__mut_slice__as_slice__t0 () (_ BitVec 64))
(declare-fun var122_true__t0 () Bool)
(assert
  (= var122_true__t0 (theory1_safe var121___slice__mut_slice__as_slice__t0) )
)

(assert
  var122_true__t0
)

; : /home/runner/work/carrier/carrier/core/src/sha256.zz:25
(declare-fun var123___carrier__sha256__init__t0 () (_ BitVec 64))
(declare-fun var124_true__t0 () Bool)
(assert
  (= var124_true__t0 (theory1_safe var123___carrier__sha256__init__t0) )
)

(assert
  var124_true__t0
)

; : /home/runner/work/carrier/carrier/modules/buffer/src/lib.zz:194
(declare-fun var125___buffer__format__t0 () (_ BitVec 64))
(declare-fun var126_true__t0 () Bool)
(assert
  (= var126_true__t0 (theory1_safe var125___buffer__format__t0) )
)

(assert
  var126_true__t0
)

; : /home/runner/work/carrier/carrier/core/src/sha256.zz:18
; : /home/runner/work/carrier/carrier/core/src/symmetric.zz:28
; : /home/runner/work/carrier/carrier/modules/buffer/src/lib.zz:178
(declare-fun var127___buffer__append_bytes__t0 () (_ BitVec 64))
(declare-fun var128_true__t0 () Bool)
(assert
  (= var128_true__t0 (theory1_safe var127___buffer__append_bytes__t0) )
)

(assert
  var128_true__t0
)

; : /home/runner/work/carrier/carrier/modules/err/src/lib.zz:292
(declare-fun var129___err__fail_with_win32__t0 () (_ BitVec 64))
(declare-fun var130_true__t0 () Bool)
(assert
  (= var130_true__t0 (theory1_safe var129___err__fail_with_win32__t0) )
)

(assert
  var130_true__t0
)

; : /home/runner/work/carrier/carrier/core/src/symmetric.zz:12
; : /home/runner/work/carrier/carrier/modules/buffer/src/lib.zz:11
; : /home/runner/work/carrier/carrier/modules/err/src/lib.zz:193
(declare-fun var131___err__eprintf__t0 () (_ BitVec 64))
(declare-fun var132_true__t0 () Bool)
(assert
  (= var132_true__t0 (theory1_safe var131___err__eprintf__t0) )
)

(assert
  var132_true__t0
)

; : /home/runner/work/carrier/carrier/core/src/symmetric.zz:50
(declare-fun var133___carrier__symmetric__encrypt_and_mix_hash__t0 () (_ BitVec 64))
(declare-fun var134_true__t0 () Bool)
(assert
  (= var134_true__t0 (theory1_safe var133___carrier__symmetric__encrypt_and_mix_hash__t0) )
)

(assert
  var134_true__t0
)

; : /home/runner/work/carrier/carrier/modules/slice/src/mut_slice.zz:108
(declare-fun var135___slice__mut_slice__push__t0 () (_ BitVec 64))
(declare-fun var136_true__t0 () Bool)
(assert
  (= var136_true__t0 (theory1_safe var135___slice__mut_slice__push__t0) )
)

(assert
  var136_true__t0
)

; : /home/runner/work/carrier/carrier/modules/err/src/lib.zz:101
(declare-fun var137___err__fail_with_system_error__t0 () (_ BitVec 64))
(declare-fun var138_true__t0 () Bool)
(assert
  (= var138_true__t0 (theory1_safe var137___err__fail_with_system_error__t0) )
)

(assert
  var138_true__t0
)

; : /home/runner/work/carrier/carrier/modules/err/src/lib.zz:26
(declare-fun var139___err__make__t0 () (_ BitVec 64))
(declare-fun var140_true__t0 () Bool)
(assert
  (= var140_true__t0 (theory1_safe var139___err__make__t0) )
)

(assert
  var140_true__t0
)

; : /home/runner/work/carrier/carrier/modules/err/src/lib.zz:64
(declare-fun var141___err__backtrace__t0 () (_ BitVec 64))
(declare-fun var142_true__t0 () Bool)
(assert
  (= var142_true__t0 (theory1_safe var141___err__backtrace__t0) )
)

(assert
  var142_true__t0
)

; : /home/runner/work/carrier/carrier/modules/slice/src/mut_slice.zz:94
(declare-fun var143___slice__mut_slice__append_cstr__t0 () (_ BitVec 64))
(declare-fun var144_true__t0 () Bool)
(assert
  (= var144_true__t0 (theory1_safe var143___slice__mut_slice__append_cstr__t0) )
)

(assert
  var144_true__t0
)

; : /home/runner/work/carrier/carrier/modules/buffer/src/lib.zz:43
(declare-fun var145___buffer__slen__t0 () (_ BitVec 64))
(declare-fun var146_true__t0 () Bool)
(assert
  (= var146_true__t0 (theory1_safe var145___buffer__slen__t0) )
)

(assert
  var146_true__t0
)

; : /home/runner/work/carrier/carrier/modules/buffer/src/lib.zz:207
(declare-fun var147___buffer__vformat__t0 () (_ BitVec 64))
(declare-fun var148_true__t0 () Bool)
(assert
  (= var148_true__t0 (theory1_safe var147___buffer__vformat__t0) )
)

(assert
  var148_true__t0
)

; : /home/runner/work/carrier/carrier/modules/slice/src/mut_slice.zz:56
(declare-fun var149___slice__mut_slice__append_slice__t0 () (_ BitVec 64))
(declare-fun var150_true__t0 () Bool)
(assert
  (= var150_true__t0 (theory1_safe var149___slice__mut_slice__append_slice__t0) )
)

(assert
  var150_true__t0
)

; : /home/runner/work/carrier/carrier/modules/err/src/lib.zz:18
; : /home/runner/work/carrier/carrier/modules/slice/src/slice.zz:63
(declare-fun var151___slice__slice__split__t0 () (_ BitVec 64))
(declare-fun var152_true__t0 () Bool)
(assert
  (= var152_true__t0 (theory1_safe var151___slice__slice__split__t0) )
)

(assert
  var152_true__t0
)

; : /home/runner/work/carrier/carrier/modules/buffer/src/lib.zz:270
(declare-fun var153___buffer__starts_with_cstr__t0 () (_ BitVec 64))
(declare-fun var154_true__t0 () Bool)
(assert
  (= var154_true__t0 (theory1_safe var153___buffer__starts_with_cstr__t0) )
)

(assert
  var154_true__t0
)

; : /home/runner/work/carrier/carrier/modules/slice/src/mut_slice.zz:123
(declare-fun var155___slice__mut_slice__push16__t0 () (_ BitVec 64))
(declare-fun var156_true__t0 () Bool)
(assert
  (= var156_true__t0 (theory1_safe var155___slice__mut_slice__push16__t0) )
)

(assert
  var156_true__t0
)

; : /home/runner/work/carrier/carrier/modules/slice/src/mut_slice.zz:20
(declare-fun var157___slice__mut_slice__make__t0 () (_ BitVec 64))
(declare-fun var158_true__t0 () Bool)
(assert
  (= var158_true__t0 (theory1_safe var157___slice__mut_slice__make__t0) )
)

(assert
  var158_true__t0
)

; : /home/runner/work/carrier/carrier/modules/buffer/src/lib.zz:33
(declare-fun var159___buffer__clear__t0 () (_ BitVec 64))
(declare-fun var160_true__t0 () Bool)
(assert
  (= var160_true__t0 (theory1_safe var159___buffer__clear__t0) )
)

(assert
  var160_true__t0
)

; : /home/runner/work/carrier/carrier/modules/slice/src/slice.zz:33
(declare-fun var161___slice__slice__eq_bytes__t0 () (_ BitVec 64))
(declare-fun var162_true__t0 () Bool)
(assert
  (= var162_true__t0 (theory1_safe var161___slice__slice__eq_bytes__t0) )
)

(assert
  var162_true__t0
)

;


;----------------------------------------------
;function ::carrier::symmetric::init
;----------------------------------------------

(push 1)

; : /home/runner/work/carrier/carrier/core/src/symmetric.zz:21
; : /home/runner/work/carrier/carrier/core/src/symmetric.zz:21
; : /home/runner/work/carrier/carrier/core/src/symmetric.zz:21
; call of safe
; collecting theory invocation arguments
; end of collecting theory invocation arguments
(declare-fun var164_protocolname__t0 () (_ BitVec 64))
(declare-fun var165_interpretation_of_theory_safe_over_protocolname__t0 () Bool)
(assert
  (= var165_interpretation_of_theory_safe_over_protocolname__t0 (theory1_safe var164_protocolname__t0) )
)

(assert (! var165_interpretation_of_theory_safe_over_protocolname__t0 :named A1))(check-sat)

; : /home/runner/work/carrier/carrier/core/src/symmetric.zz:21
; call of safe
; collecting theory invocation arguments
; end of collecting theory invocation arguments
(declare-fun var163_self__t0 () (_ BitVec 64))
(declare-fun var166_interpretation_of_theory_safe_over_self__t0 () Bool)
(assert
  (= var166_interpretation_of_theory_safe_over_self__t0 (theory1_safe var163_self__t0) )
)

(assert (! var166_interpretation_of_theory_safe_over_self__t0 :named A2))(check-sat)

; : /home/runner/work/carrier/carrier/core/src/symmetric.zz:22
; call of ::ext::<string.h>::memset
; : /home/runner/work/carrier/carrier/core/src/symmetric.zz:22
; : /home/runner/work/carrier/carrier/core/src/symmetric.zz:22
; : /home/runner/work/carrier/carrier/core/src/symmetric.zz:22
; : /home/runner/work/carrier/carrier/core/src/symmetric.zz:22
; begin safe ptr check
(declare-fun var168_safe_self___t0 () Bool)
(assert
  (= var168_safe_self___t0 (theory1_safe var163_self__t0) )
)

(push 1)

(assert
  (and true (or (not var168_safe_self___t0 ) ))

)

(check-sat)

; unsat / pass
(pop 1)

; : /home/runner/work/carrier/carrier/core/src/symmetric.zz:14
(check-sat)

(get-value (

  var9___carrier__sha256__HASHLEN__t1

) )

;  = "#x0000000000000020"
(push 1)

(assert
  (not (= var9___carrier__sha256__HASHLEN__t1 #x0000000000000020))
)

(check-sat)

(pop 1)

(push 1)

(check-sat)

(pop 1)

; : /home/runner/work/carrier/carrier/core/src/symmetric.zz:22
(declare-fun var169_deref_var163_self__ck__t0 () (_ BitVec 64))
(declare-fun var170_len_deref_var163_self__ck___t0 () (_ BitVec 64))
(assert
  (= var170_len_deref_var163_self__ck___t0 (theory0_len var169_deref_var163_self__ck__t0) )
)

(assert
  (= var170_len_deref_var163_self__ck___t0 (_ bv32 64))

)

(declare-fun var171_true__t0 () Bool)
(assert
  (= var171_true__t0 (theory1_safe var169_deref_var163_self__ck__t0) )
)

(assert
  var171_true__t0
)

; : /home/runner/work/carrier/carrier/core/src/symmetric.zz:22
; literal expr
(declare-fun var172_literal_Unsigned_0___t0 () (_ BitVec 64))
(assert
  (= var172_literal_Unsigned_0___t0 (_ bv0 64))

)

; : /home/runner/work/carrier/carrier/core/src/symmetric.zz:22
; call of ::ext::<stddef.h>::sizeof
; : /home/runner/work/carrier/carrier/core/src/symmetric.zz:22
; : /home/runner/work/carrier/carrier/core/src/symmetric.zz:22
; : /home/runner/work/carrier/carrier/core/src/symmetric.zz:22
; : /home/runner/work/carrier/carrier/core/src/symmetric.zz:22
; : /home/runner/work/carrier/carrier/core/src/symmetric.zz:23
; call of ::ext::<assert.h>::assert
; : /home/runner/work/carrier/carrier/core/src/symmetric.zz:23
; : /home/runner/work/carrier/carrier/core/src/symmetric.zz:23
; : /home/runner/work/carrier/carrier/core/src/symmetric.zz:23
; : /home/runner/work/carrier/carrier/core/src/symmetric.zz:23
; call of ::ext::<string.h>::strlen
; : /home/runner/work/carrier/carrier/core/src/symmetric.zz:23
; : /home/runner/work/carrier/carrier/core/src/symmetric.zz:23
; : /home/runner/work/carrier/carrier/core/src/symmetric.zz:23
; : /home/runner/work/carrier/carrier/core/src/symmetric.zz:23
(declare-fun var177_cast_of_return_value_of___ext___string_h___strlen__t0 () (_ BitVec 64))
(declare-fun var176_return_value_of___ext___string_h___strlen__t0 () (_ BitVec 64))
(assert (! (= var177_cast_of_return_value_of___ext___string_h___strlen__t0 var176_return_value_of___ext___string_h___strlen__t0) :named A3)); : /home/runner/work/carrier/carrier/core/src/symmetric.zz:23
; : /home/runner/work/carrier/carrier/core/src/symmetric.zz:23
(declare-fun var178_infix_expression__t0 () Bool)
(assert
  (=  var178_infix_expression__t0 (bvule var177_cast_of_return_value_of___ext___string_h___strlen__t0 var9___carrier__sha256__HASHLEN__t1))
)

; : /home/runner/work/carrier/carrier/core/src/symmetric.zz:23
; : /home/runner/work/carrier/carrier/core/src/symmetric.zz:24
; call of ::ext::<string.h>::memcpy
; : /home/runner/work/carrier/carrier/core/src/symmetric.zz:24
; : /home/runner/work/carrier/carrier/core/src/symmetric.zz:24
; : /home/runner/work/carrier/carrier/core/src/symmetric.zz:24
; : /home/runner/work/carrier/carrier/core/src/symmetric.zz:24
; : /home/runner/work/carrier/carrier/core/src/symmetric.zz:24
; call of ::ext::<string.h>::strlen
; : /home/runner/work/carrier/carrier/core/src/symmetric.zz:24
; : /home/runner/work/carrier/carrier/core/src/symmetric.zz:24
; : /home/runner/work/carrier/carrier/core/src/symmetric.zz:24
; : /home/runner/work/carrier/carrier/core/src/symmetric.zz:24
; : /home/runner/work/carrier/carrier/core/src/symmetric.zz:25
; call of ::ext::<string.h>::memcpy
; : /home/runner/work/carrier/carrier/core/src/symmetric.zz:25
; : /home/runner/work/carrier/carrier/core/src/symmetric.zz:25
; : /home/runner/work/carrier/carrier/core/src/symmetric.zz:25
; : /home/runner/work/carrier/carrier/core/src/symmetric.zz:16
(check-sat)

(get-value (

  var9___carrier__sha256__HASHLEN__t1

) )

;  = "#x0000000000000020"
(push 1)

(assert
  (not (= var9___carrier__sha256__HASHLEN__t1 #x0000000000000020))
)

(check-sat)

(pop 1)

(push 1)

(check-sat)

(pop 1)

; : /home/runner/work/carrier/carrier/core/src/symmetric.zz:25
(declare-fun var182_deref_var163_self__h__t0 () (_ BitVec 64))
(declare-fun var183_len_deref_var163_self__h___t0 () (_ BitVec 64))
(assert
  (= var183_len_deref_var163_self__h___t0 (theory0_len var182_deref_var163_self__h__t0) )
)

(assert
  (= var183_len_deref_var163_self__h___t0 (_ bv32 64))

)

(declare-fun var184_true__t0 () Bool)
(assert
  (= var184_true__t0 (theory1_safe var182_deref_var163_self__h__t0) )
)

(assert
  var184_true__t0
)

; : /home/runner/work/carrier/carrier/core/src/symmetric.zz:25
; : /home/runner/work/carrier/carrier/core/src/symmetric.zz:25
; : /home/runner/work/carrier/carrier/core/src/symmetric.zz:25
; : /home/runner/work/carrier/carrier/core/src/symmetric.zz:25
;end of function ::carrier::symmetric::init


(pop 1)

(declare-fun var164_protocolname__t0 () (_ BitVec 64))
(declare-fun var165_interpretation_of_theory_safe_over_protocolname__t0 () Bool)
(declare-fun var163_self__t0 () (_ BitVec 64))
(declare-fun var166_interpretation_of_theory_safe_over_self__t0 () Bool)
(declare-fun var168_safe_self___t0 () Bool)
(declare-fun var169_deref_var163_self__ck__t0 () (_ BitVec 64))
(declare-fun var170_len_deref_var163_self__ck___t0 () (_ BitVec 64))
(declare-fun var171_true__t0 () Bool)
(declare-fun var172_literal_Unsigned_0___t0 () (_ BitVec 64))
(declare-fun var182_deref_var163_self__h__t0 () (_ BitVec 64))
(declare-fun var183_len_deref_var163_self__h___t0 () (_ BitVec 64))
(declare-fun var184_true__t0 () Bool)
(check-sat)

